1134989
[0, 47, 36, 73, 31, 59, 30, 61, 92, 48, 55, 9, 76, 29, 95, 20, 19, 17, 68, 40, 74, 5, 62, 12, 67, 71, 54, 43, 90, 41, 34, 1, 2, 4, 63, 26, 96, 52, 7, 88, 84, 98, 35, 49, 87, 75, 37, 86, 44, 85, 80, 3, 6, 65, 13, 38, 91, 83, 21, 51, 42, 23, 58, 18, 16, 25, 11, 93, 39, 28, 78, 50, 77, 24, 89, 64, 53, 97, 22, 10, 27, 45, 70, 33, 72, 82, 14, 15, 57, 60, 81, 66, 79, 69, 32, 8, 56, 46, 94, 0]
